p edge 1466 1376
e 1 2
e 1 3
e 1 4
e 1 5
e 1 6
e 1 7
e 1 8
e 1 9
e 1 10
e 1 11
e 1 12
e 1 13
e 1 14
e 15 16
e 15 17
e 15 18
e 15 19
e 15 20
e 15 21
e 15 22
e 15 23
e 15 24
e 15 25
e 15 26
e 15 27
e 15 28
e 15 29
e 30 31
e 30 32
e 30 33
e 30 34
e 30 35
e 30 36
e 30 37
e 30 38
e 30 39
e 30 40
e 30 41
e 30 42
e 30 43
e 44 45
e 44 46
e 44 47
e 44 48
e 44 49
e 44 50
e 44 51
e 44 52
e 44 53
e 44 54
e 44 55
e 44 56
e 44 57
e 44 58
e 44 59
e 44 60
e 44 61
e 44 62
e 63 64
e 63 65
e 63 66
e 63 67
e 63 68
e 63 69
e 63 70
e 63 71
e 63 72
e 63 73
e 63 74
e 63 75
e 63 76
e 63 77
e 63 78
e 79 80
e 79 81
e 79 82
e 79 83
e 79 84
e 79 85
e 79 86
e 79 87
e 79 88
e 79 89
e 79 90
e 79 91
e 79 92
e 79 93
e 79 94
e 79 95
e 79 96
e 79 97
e 98 99
e 98 100
e 98 101
e 98 102
e 98 103
e 98 104
e 98 105
e 98 106
e 98 107
e 98 108
e 98 109
e 98 110
e 98 111
e 98 112
e 113 114
e 113 115
e 113 116
e 113 117
e 113 118
e 113 119
e 113 120
e 113 121
e 113 122
e 113 123
e 113 124
e 113 125
e 126 127
e 126 128
e 126 129
e 126 130
e 126 131
e 126 132
e 126 133
e 126 134
e 126 135
e 126 136
e 126 137
e 138 139
e 138 140
e 138 141
e 138 142
e 138 143
e 138 144
e 138 145
e 138 146
e 138 147
e 138 148
e 138 149
e 138 150
e 138 151
e 152 153
e 152 154
e 152 155
e 152 156
e 152 157
e 152 158
e 152 159
e 152 160
e 152 161
e 152 162
e 152 163
e 152 164
e 152 165
e 152 166
e 152 167
e 152 168
e 152 169
e 170 171
e 170 172
e 170 173
e 170 174
e 170 175
e 170 176
e 170 177
e 170 178
e 170 179
e 170 180
e 170 181
e 170 182
e 170 183
e 170 184
e 170 185
e 170 186
e 170 187
e 188 189
e 188 190
e 188 191
e 188 192
e 188 193
e 188 194
e 188 195
e 188 196
e 188 197
e 188 198
e 188 199
e 188 200
e 188 201
e 202 203
e 202 204
e 202 205
e 202 206
e 202 207
e 202 208
e 202 209
e 202 210
e 202 211
e 202 212
e 202 213
e 214 215
e 214 216
e 214 217
e 214 218
e 214 219
e 214 220
e 214 221
e 214 222
e 214 223
e 214 224
e 214 225
e 214 226
e 214 227
e 228 229
e 228 230
e 228 231
e 228 232
e 228 233
e 228 234
e 228 235
e 228 236
e 228 237
e 228 238
e 228 239
e 228 240
e 228 241
e 228 242
e 228 243
e 228 244
e 228 245
e 228 246
e 247 248
e 247 249
e 247 250
e 247 251
e 247 252
e 247 253
e 247 254
e 247 255
e 247 256
e 247 257
e 247 258
e 259 260
e 259 261
e 259 262
e 259 263
e 259 264
e 259 265
e 259 266
e 259 267
e 259 268
e 259 269
e 259 270
e 259 271
e 259 272
e 259 273
e 259 274
e 259 275
e 259 276
e 259 277
e 259 278
e 279 280
e 279 281
e 279 282
e 279 283
e 279 284
e 279 285
e 279 286
e 279 287
e 279 288
e 279 289
e 279 290
e 279 291
e 279 292
e 293 294
e 293 295
e 293 296
e 293 297
e 293 298
e 293 299
e 293 300
e 293 301
e 293 302
e 293 303
e 293 304
e 293 305
e 293 306
e 293 307
e 293 308
e 293 309
e 293 310
e 293 311
e 293 312
e 293 313
e 314 315
e 314 316
e 314 317
e 314 318
e 314 319
e 314 320
e 314 321
e 314 322
e 314 323
e 314 324
e 314 325
e 314 326
e 314 327
e 328 329
e 328 330
e 328 331
e 328 332
e 328 333
e 328 334
e 328 335
e 328 336
e 328 337
e 328 338
e 328 339
e 328 340
e 328 341
e 328 342
e 343 344
e 343 345
e 343 346
e 343 347
e 343 348
e 343 349
e 343 350
e 343 351
e 343 352
e 343 353
e 343 354
e 355 356
e 355 357
e 355 358
e 355 359
e 355 360
e 355 361
e 355 362
e 355 363
e 355 364
e 355 365
e 355 366
e 355 367
e 355 368
e 355 369
e 355 370
e 355 371
e 355 372
e 373 374
e 373 375
e 373 376
e 373 377
e 373 378
e 373 379
e 373 380
e 373 381
e 373 382
e 373 383
e 384 385
e 384 386
e 384 387
e 384 388
e 384 389
e 384 390
e 384 391
e 384 392
e 384 393
e 384 394
e 384 395
e 384 396
e 384 397
e 384 398
e 384 399
e 384 400
e 384 401
e 402 403
e 402 404
e 402 405
e 402 406
e 402 407
e 402 408
e 402 409
e 402 410
e 402 411
e 402 412
e 402 413
e 402 414
e 402 415
e 402 416
e 402 417
e 402 418
e 402 419
e 402 420
e 421 422
e 421 423
e 421 424
e 421 425
e 421 426
e 421 427
e 421 428
e 421 429
e 421 430
e 421 431
e 421 432
e 421 433
e 421 434
e 421 435
e 421 436
e 421 437
e 421 438
e 421 439
e 421 440
e 421 441
e 442 443
e 442 444
e 442 445
e 442 446
e 442 447
e 442 448
e 442 449
e 442 450
e 442 451
e 442 452
e 442 453
e 442 454
e 442 455
e 442 456
e 442 457
e 442 458
e 459 460
e 459 461
e 459 462
e 459 463
e 459 464
e 459 465
e 459 466
e 459 467
e 459 468
e 459 469
e 459 470
e 459 471
e 459 472
e 459 473
e 459 474
e 459 475
e 459 476
e 459 477
e 459 478
e 459 479
e 480 481
e 480 482
e 480 483
e 480 484
e 480 485
e 480 486
e 480 487
e 480 488
e 480 489
e 480 490
e 480 491
e 480 492
e 480 493
e 480 494
e 480 495
e 480 496
e 480 497
e 498 499
e 498 500
e 498 501
e 498 502
e 498 503
e 498 504
e 498 505
e 498 506
e 498 507
e 498 508
e 498 509
e 498 510
e 498 511
e 498 512
e 513 514
e 513 515
e 513 516
e 513 517
e 513 518
e 513 519
e 513 520
e 513 521
e 513 522
e 513 523
e 524 525
e 524 526
e 524 527
e 524 528
e 524 529
e 524 530
e 524 531
e 524 532
e 524 533
e 524 534
e 524 535
e 536 537
e 536 538
e 536 539
e 536 540
e 536 541
e 536 542
e 536 543
e 536 544
e 536 545
e 536 546
e 536 547
e 536 548
e 536 549
e 536 550
e 536 551
e 536 552
e 553 554
e 553 555
e 553 556
e 553 557
e 553 558
e 553 559
e 553 560
e 553 561
e 553 562
e 553 563
e 564 565
e 564 566
e 564 567
e 564 568
e 564 569
e 564 570
e 564 571
e 564 572
e 564 573
e 564 574
e 564 575
e 564 576
e 564 577
e 564 578
e 564 579
e 564 580
e 581 582
e 581 583
e 581 584
e 581 585
e 581 586
e 581 587
e 581 588
e 581 589
e 581 590
e 581 591
e 581 592
e 581 593
e 581 594
e 581 595
e 581 596
e 581 597
e 598 599
e 598 600
e 598 601
e 598 602
e 598 603
e 598 604
e 598 605
e 598 606
e 598 607
e 598 608
e 598 609
e 598 610
e 598 611
e 598 612
e 598 613
e 614 615
e 614 616
e 614 617
e 614 618
e 614 619
e 614 620
e 614 621
e 614 622
e 614 623
e 614 624
e 614 625
e 614 626
e 614 627
e 614 628
e 614 629
e 630 631
e 630 632
e 630 633
e 630 634
e 630 635
e 630 636
e 630 637
e 630 638
e 630 639
e 630 640
e 630 641
e 630 642
e 630 643
e 630 644
e 645 646
e 645 647
e 645 648
e 645 649
e 645 650
e 645 651
e 645 652
e 645 653
e 645 654
e 645 655
e 645 656
e 645 657
e 645 658
e 645 659
e 645 660
e 645 661
e 645 662
e 663 664
e 663 665
e 663 666
e 663 667
e 663 668
e 663 669
e 663 670
e 663 671
e 663 672
e 663 673
e 663 674
e 663 675
e 663 676
e 663 677
e 663 678
e 663 679
e 663 680
e 663 681
e 663 682
e 663 683
e 684 685
e 684 686
e 684 687
e 684 688
e 684 689
e 684 690
e 684 691
e 684 692
e 684 693
e 684 694
e 684 695
e 684 696
e 684 697
e 684 698
e 684 699
e 700 701
e 700 702
e 700 703
e 700 704
e 700 705
e 700 706
e 700 707
e 700 708
e 700 709
e 700 710
e 700 711
e 700 712
e 700 713
e 700 714
e 700 715
e 700 716
e 700 717
e 700 718
e 700 719
e 700 720
e 721 722
e 721 723
e 721 724
e 721 725
e 721 726
e 721 727
e 721 728
e 721 729
e 721 730
e 721 731
e 721 732
e 721 733
e 721 734
e 721 735
e 736 737
e 736 738
e 736 739
e 736 740
e 736 741
e 736 742
e 736 743
e 736 744
e 736 745
e 736 746
e 736 747
e 736 748
e 736 749
e 736 750
e 736 751
e 736 752
e 736 753
e 736 754
e 736 755
e 756 757
e 756 758
e 756 759
e 756 760
e 756 761
e 756 762
e 756 763
e 756 764
e 756 765
e 756 766
e 756 767
e 756 768
e 756 769
e 756 770
e 756 771
e 756 772
e 756 773
e 756 774
e 756 775
e 776 777
e 776 778
e 776 779
e 776 780
e 776 781
e 776 782
e 776 783
e 776 784
e 776 785
e 776 786
e 776 787
e 776 788
e 776 789
e 776 790
e 776 791
e 776 792
e 776 793
e 776 794
e 795 796
e 795 797
e 795 798
e 795 799
e 795 800
e 795 801
e 795 802
e 795 803
e 795 804
e 795 805
e 795 806
e 795 807
e 795 808
e 795 809
e 795 810
e 795 811
e 795 812
e 795 813
e 814 815
e 814 816
e 814 817
e 814 818
e 814 819
e 814 820
e 814 821
e 814 822
e 814 823
e 814 824
e 814 825
e 814 826
e 814 827
e 814 828
e 814 829
e 814 830
e 831 832
e 831 833
e 831 834
e 831 835
e 831 836
e 831 837
e 831 838
e 831 839
e 831 840
e 831 841
e 831 842
e 831 843
e 831 844
e 831 845
e 831 846
e 831 847
e 831 848
e 849 850
e 849 851
e 849 852
e 849 853
e 849 854
e 849 855
e 849 856
e 849 857
e 849 858
e 849 859
e 849 860
e 849 861
e 849 862
e 849 863
e 849 864
e 849 865
e 849 866
e 867 868
e 867 869
e 867 870
e 867 871
e 867 872
e 867 873
e 867 874
e 867 875
e 867 876
e 867 877
e 867 878
e 867 879
e 867 880
e 867 881
e 867 882
e 867 883
e 867 884
e 867 885
e 886 887
e 886 888
e 886 889
e 886 890
e 886 891
e 886 892
e 886 893
e 886 894
e 886 895
e 886 896
e 886 897
e 886 898
e 886 899
e 900 901
e 900 902
e 900 903
e 900 904
e 900 905
e 900 906
e 900 907
e 900 908
e 900 909
e 900 910
e 900 911
e 900 912
e 900 913
e 900 914
e 900 915
e 900 916
e 900 917
e 900 918
e 900 919
e 900 920
e 921 922
e 921 923
e 921 924
e 921 925
e 921 926
e 921 927
e 921 928
e 921 929
e 921 930
e 921 931
e 921 932
e 921 933
e 921 934
e 935 936
e 935 937
e 935 938
e 935 939
e 935 940
e 935 941
e 935 942
e 935 943
e 935 944
e 935 945
e 935 946
e 935 947
e 935 948
e 935 949
e 935 950
e 935 951
e 935 952
e 935 953
e 935 954
e 955 956
e 955 957
e 955 958
e 955 959
e 955 960
e 955 961
e 955 962
e 955 963
e 955 964
e 955 965
e 955 966
e 967 968
e 967 969
e 967 970
e 967 971
e 967 972
e 967 973
e 967 974
e 967 975
e 967 976
e 967 977
e 967 978
e 967 979
e 967 980
e 967 981
e 967 982
e 967 983
e 967 984
e 985 986
e 985 987
e 985 988
e 985 989
e 985 990
e 985 991
e 985 992
e 985 993
e 985 994
e 985 995
e 985 996
e 985 997
e 985 998
e 985 999
e 1000 1001
e 1000 1002
e 1000 1003
e 1000 1004
e 1000 1005
e 1000 1006
e 1000 1007
e 1000 1008
e 1000 1009
e 1000 1010
e 1000 1011
e 1000 1012
e 1000 1013
e 1000 1014
e 1000 1015
e 1000 1016
e 1000 1017
e 1018 1019
e 1018 1020
e 1018 1021
e 1018 1022
e 1018 1023
e 1018 1024
e 1018 1025
e 1018 1026
e 1018 1027
e 1018 1028
e 1018 1029
e 1018 1030
e 1018 1031
e 1018 1032
e 1018 1033
e 1018 1034
e 1018 1035
e 1018 1036
e 1018 1037
e 1038 1039
e 1038 1040
e 1038 1041
e 1038 1042
e 1038 1043
e 1038 1044
e 1038 1045
e 1038 1046
e 1038 1047
e 1038 1048
e 1038 1049
e 1050 1051
e 1050 1052
e 1050 1053
e 1050 1054
e 1050 1055
e 1050 1056
e 1050 1057
e 1050 1058
e 1050 1059
e 1050 1060
e 1050 1061
e 1062 1063
e 1062 1064
e 1062 1065
e 1062 1066
e 1062 1067
e 1062 1068
e 1062 1069
e 1062 1070
e 1062 1071
e 1062 1072
e 1062 1073
e 1062 1074
e 1062 1075
e 1062 1076
e 1062 1077
e 1062 1078
e 1062 1079
e 1062 1080
e 1081 1082
e 1081 1083
e 1081 1084
e 1081 1085
e 1081 1086
e 1081 1087
e 1081 1088
e 1081 1089
e 1081 1090
e 1081 1091
e 1081 1092
e 1081 1093
e 1081 1094
e 1095 1096
e 1095 1097
e 1095 1098
e 1095 1099
e 1095 1100
e 1095 1101
e 1095 1102
e 1095 1103
e 1095 1104
e 1095 1105
e 1095 1106
e 1095 1107
e 1095 1108
e 1095 1109
e 1095 1110
e 1095 1111
e 1095 1112
e 1113 1114
e 1113 1115
e 1113 1116
e 1113 1117
e 1113 1118
e 1113 1119
e 1113 1120
e 1113 1121
e 1113 1122
e 1113 1123
e 1113 1124
e 1113 1125
e 1113 1126
e 1113 1127
e 1128 1129
e 1128 1130
e 1128 1131
e 1128 1132
e 1128 1133
e 1128 1134
e 1128 1135
e 1128 1136
e 1128 1137
e 1128 1138
e 1128 1139
e 1128 1140
e 1128 1141
e 1128 1142
e 1128 1143
e 1144 1145
e 1144 1146
e 1144 1147
e 1144 1148
e 1144 1149
e 1144 1150
e 1144 1151
e 1144 1152
e 1144 1153
e 1144 1154
e 1144 1155
e 1144 1156
e 1144 1157
e 1144 1158
e 1144 1159
e 1144 1160
e 1144 1161
e 1144 1162
e 1144 1163
e 1144 1164
e 1165 1166
e 1165 1167
e 1165 1168
e 1165 1169
e 1165 1170
e 1165 1171
e 1165 1172
e 1165 1173
e 1165 1174
e 1165 1175
e 1165 1176
e 1165 1177
e 1165 1178
e 1165 1179
e 1165 1180
e 1165 1181
e 1165 1182
e 1183 1184
e 1183 1185
e 1183 1186
e 1183 1187
e 1183 1188
e 1183 1189
e 1183 1190
e 1183 1191
e 1183 1192
e 1183 1193
e 1183 1194
e 1183 1195
e 1183 1196
e 1183 1197
e 1183 1198
e 1183 1199
e 1183 1200
e 1183 1201
e 1183 1202
e 1183 1203
e 1204 1205
e 1204 1206
e 1204 1207
e 1204 1208
e 1204 1209
e 1204 1210
e 1204 1211
e 1204 1212
e 1204 1213
e 1204 1214
e 1204 1215
e 1204 1216
e 1204 1217
e 1204 1218
e 1204 1219
e 1220 1221
e 1220 1222
e 1220 1223
e 1220 1224
e 1220 1225
e 1220 1226
e 1220 1227
e 1220 1228
e 1220 1229
e 1220 1230
e 1220 1231
e 1220 1232
e 1220 1233
e 1220 1234
e 1220 1235
e 1236 1237
e 1236 1238
e 1236 1239
e 1236 1240
e 1236 1241
e 1236 1242
e 1236 1243
e 1236 1244
e 1236 1245
e 1236 1246
e 1236 1247
e 1236 1248
e 1236 1249
e 1236 1250
e 1236 1251
e 1236 1252
e 1236 1253
e 1236 1254
e 1255 1256
e 1255 1257
e 1255 1258
e 1255 1259
e 1255 1260
e 1255 1261
e 1255 1262
e 1255 1263
e 1255 1264
e 1255 1265
e 1255 1266
e 1267 1268
e 1267 1269
e 1267 1270
e 1267 1271
e 1267 1272
e 1267 1273
e 1267 1274
e 1267 1275
e 1267 1276
e 1267 1277
e 1267 1278
e 1267 1279
e 1267 1280
e 1267 1281
e 1267 1282
e 1267 1283
e 1284 1285
e 1284 1286
e 1284 1287
e 1284 1288
e 1284 1289
e 1284 1290
e 1284 1291
e 1284 1292
e 1284 1293
e 1284 1294
e 1284 1295
e 1284 1296
e 1284 1297
e 1284 1298
e 1284 1299
e 1284 1300
e 1284 1301
e 1284 1302
e 1284 1303
e 1304 1305
e 1304 1306
e 1304 1307
e 1304 1308
e 1304 1309
e 1304 1310
e 1304 1311
e 1304 1312
e 1304 1313
e 1304 1314
e 1304 1315
e 1304 1316
e 1304 1317
e 1304 1318
e 1304 1319
e 1304 1320
e 1304 1321
e 1304 1322
e 1323 1324
e 1323 1325
e 1323 1326
e 1323 1327
e 1323 1328
e 1323 1329
e 1323 1330
e 1323 1331
e 1323 1332
e 1323 1333
e 1323 1334
e 1323 1335
e 1323 1336
e 1323 1337
e 1323 1338
e 1339 1340
e 1339 1341
e 1339 1342
e 1339 1343
e 1339 1344
e 1339 1345
e 1339 1346
e 1339 1347
e 1339 1348
e 1339 1349
e 1339 1350
e 1339 1351
e 1339 1352
e 1339 1353
e 1339 1354
e 1339 1355
e 1339 1356
e 1357 1358
e 1357 1359
e 1357 1360
e 1357 1361
e 1357 1362
e 1357 1363
e 1357 1364
e 1357 1365
e 1357 1366
e 1357 1367
e 1368 1369
e 1368 1370
e 1368 1371
e 1368 1372
e 1368 1373
e 1368 1374
e 1368 1375
e 1368 1376
e 1368 1377
e 1368 1378
e 1379 1380
e 1379 1381
e 1379 1382
e 1379 1383
e 1379 1384
e 1379 1385
e 1379 1386
e 1379 1387
e 1379 1388
e 1379 1389
e 1390 1391
e 1390 1392
e 1390 1393
e 1390 1394
e 1390 1395
e 1390 1396
e 1390 1397
e 1390 1398
e 1390 1399
e 1390 1400
e 1401 1402
e 1401 1403
e 1401 1404
e 1401 1405
e 1401 1406
e 1401 1407
e 1401 1408
e 1401 1409
e 1401 1410
e 1401 1411
e 1401 1412
e 1401 1413
e 1401 1414
e 1415 1416
e 1415 1417
e 1415 1418
e 1415 1419
e 1415 1420
e 1415 1421
e 1415 1422
e 1415 1423
e 1415 1424
e 1415 1425
e 1426 1427
e 1426 1428
e 1426 1429
e 1426 1430
e 1426 1431
e 1426 1432
e 1426 1433
e 1426 1434
e 1426 1435
e 1426 1436
e 1426 1437
e 1426 1438
e 1426 1439
e 1426 1440
e 1426 1441
e 1426 1442
e 1426 1443
e 1426 1444
e 1426 1445
e 1446 1447
e 1446 1448
e 1446 1449
e 1446 1450
e 1446 1451
e 1446 1452
e 1446 1453
e 1446 1454
e 1446 1455
e 1446 1456
e 1446 1457
e 1446 1458
e 1446 1459
e 1446 1460
e 1446 1461
e 1446 1462
e 1446 1463
e 1446 1464
e 1446 1465
e 1446 1466
